nohup: ignoring input
./result/saved_models/regression/trained_params_mean_setcover-independentset-combinatorialauction_asymmetric_firstsol_k_prime_epoch163.pth
./result/saved_models/rl/reinforce/setcovering/checkpoint_trained_reward3_simplepolicy_rl4lb_reinforce_trainset_setcovering-small_lr0.01_epochs7.pth
miplib_39binary-small
rootsol
./result/generated_instances/miplib_39binary/-small/rootsol/scip/heuristic_mode/lb-from-rootsol-t_total60s-small_scip_baseline/seed0/
seed: 0
cpu
Load test dataset
get the DataLoader
instance:  0
create a new SCIP model
original problem has 3648 variables (192 bin, 0 int, 0 impl, 3456 cont) and 3312 constraints
The initial incumbent of miplib_39binary-0_transformed_a1c1s1 is successfully added to MIP model
miplib_39binary-0_transformed_a1c1s1
N of variables: 3648
N of binary vars: 192
N of constraints: 3312
Initial obj of MIP: 21029.389
call and execute heuristic search for the given instance
Instance: miplib_39binary-0_transformed_a1c1s1
Status of SCIP_baseline:  timelimit
Best obj of SCIP_baseline:  14161.539499999992
Solving time:  60.000392


[array([21029.389 , 20970.9075, 14204.3845, 14204.3845, 14161.5395]), array([ 0.      ,  0.065818,  2.33052 , 21.014476, 37.306157])]
instance:  1
create a new SCIP model
original problem has 842 variables (421 bin, 0 int, 0 impl, 421 cont) and 479 constraints
The initial incumbent of miplib_39binary-1_transformed_aflow30a is successfully added to MIP model
miplib_39binary-1_transformed_aflow30a
N of variables: 842
N of binary vars: 421
N of constraints: 479
Initial obj of MIP: 1208.0
call and execute heuristic search for the given instance
Instance: miplib_39binary-1_transformed_aflow30a
Status of SCIP_baseline:  optimal
Best obj of SCIP_baseline:  1158.0
Solving time:  43.017293


[array([1208., 1203., 1185., 1174., 1172., 1164., 1160., 1159., 1158.]), array([ 0.      ,  0.650129,  5.908543,  9.967515, 14.7778  , 17.777783,
       21.004873, 30.845628, 31.338461])]
instance:  2
create a new SCIP model
original problem has 2728 variables (1364 bin, 0 int, 0 impl, 1364 cont) and 1442 constraints
The initial incumbent of miplib_39binary-2_transformed_aflow40b is successfully added to MIP model
miplib_39binary-2_transformed_aflow40b
N of variables: 2728
N of binary vars: 1364
N of constraints: 1442
Initial obj of MIP: 1242.0
call and execute heuristic search for the given instance
Instance: miplib_39binary-2_transformed_aflow40b
Status of SCIP_baseline:  timelimit
Best obj of SCIP_baseline:  1171.0
Solving time:  60.000049


[array([1242., 1228., 1213., 1187., 1171.]), array([ 0.      ,  2.360017,  2.382296, 30.834733, 58.742249])]
instance:  3
create a new SCIP model
original problem has 8904 variables (8904 bin, 0 int, 0 impl, 0 cont) and 1069 constraints
The initial incumbent of miplib_39binary-3_transformed_air04 is successfully added to MIP model
miplib_39binary-3_transformed_air04
N of variables: 8904
N of binary vars: 8904
N of constraints: 1069
Initial obj of MIP: 56212.0
call and execute heuristic search for the given instance
Instance: miplib_39binary-3_transformed_air04
Status of SCIP_baseline:  optimal
Best obj of SCIP_baseline:  56137.0
Solving time:  58.765904


[array([56212., 56137.]), array([ 0.      , 27.164176])]
instance:  4
create a new SCIP model
original problem has 7195 variables (7195 bin, 0 int, 0 impl, 0 cont) and 714 constraints
The initial incumbent of miplib_39binary-4_transformed_air05 is successfully added to MIP model
miplib_39binary-4_transformed_air05
N of variables: 7195
N of binary vars: 7195
N of constraints: 714
Initial obj of MIP: 45015.0
call and execute heuristic search for the given instance
Instance: miplib_39binary-4_transformed_air05
Status of SCIP_baseline:  optimal
Best obj of SCIP_baseline:  26374.000000000004
Solving time:  58.928319


[array([45015., 28737., 27596., 27219., 27203., 26805., 26799., 26746.,
       26745., 26736., 26529., 26485., 26402., 26374.]), array([ 0.      ,  6.621073, 25.952572, 26.918468, 27.280623, 40.24499 ,
       40.905131, 40.912195, 40.967078, 45.67789 , 45.942906, 46.020612,
       50.570708, 55.451396])]
instance:  5
create a new SCIP model
original problem has 6000 variables (6000 bin, 0 int, 0 impl, 0 cont) and 2171 constraints
The initial incumbent of miplib_39binary-5_transformed_cap6000 is successfully added to MIP model
miplib_39binary-5_transformed_cap6000
N of variables: 6000
N of binary vars: 6000
N of constraints: 2171
Initial obj of MIP: -2449596.0
call and execute heuristic search for the given instance
Instance: miplib_39binary-5_transformed_cap6000
Status of SCIP_baseline:  optimal
Best obj of SCIP_baseline:  -2451377.0
Solving time:  16.324447


[array([-2449596., -2451346., -2451355., -2451371., -2451372., -2451377.]), array([ 0.      ,  0.075884, 10.726805, 12.116062, 14.406915, 14.491439])]
instance:  6
create a new SCIP model
original problem has 13873 variables (552 bin, 0 int, 0 impl, 13321 cont) and 3215 constraints
The initial incumbent of miplib_39binary-6_transformed_dano3mip is successfully added to MIP model
miplib_39binary-6_transformed_dano3mip
N of variables: 13873
N of binary vars: 552
N of constraints: 3215
Initial obj of MIP: 727.047619047619
call and execute heuristic search for the given instance
Instance: miplib_39binary-6_transformed_dano3mip
Status of SCIP_baseline:  timelimit
Best obj of SCIP_baseline:  727.047619047619
Solving time:  60.026235


[array([727.04761905]), array([0.])]
instance:  7
create a new SCIP model
original problem has 521 variables (56 bin, 0 int, 0 impl, 465 cont) and 688 constraints
The initial incumbent of miplib_39binary-7_transformed_danoint is successfully added to MIP model
miplib_39binary-7_transformed_danoint
N of variables: 521
N of binary vars: 56
N of constraints: 688
Initial obj of MIP: 70.0
call and execute heuristic search for the given instance
Instance: miplib_39binary-7_transformed_danoint
Status of SCIP_baseline:  timelimit
Best obj of SCIP_baseline:  65.66666666666666
Solving time:  60.000062


[array([70.        , 68.33333333, 68.28571429, 66.5       , 65.66666667]), array([ 0.      , 20.146658, 42.03299 , 42.593591, 45.014652])]
instance:  8
create a new SCIP model
original problem has 67732 variables (67732 bin, 0 int, 0 impl, 0 cont) and 656 constraints
The initial incumbent of miplib_39binary-8_transformed_ds is successfully added to MIP model
miplib_39binary-8_transformed_ds
N of variables: 67732
N of binary vars: 67732
N of constraints: 656
Initial obj of MIP: 396263.0
call and execute heuristic search for the given instance
Instance: miplib_39binary-8_transformed_ds
Status of SCIP_baseline:  timelimit
Best obj of SCIP_baseline:  396263.0
Solving time:  60.016744


[array([396263.]), array([0.])]
instance:  9
create a new SCIP model
original problem has 63009 variables (63009 bin, 0 int, 0 impl, 0 cont) and 507 constraints
The initial incumbent of miplib_39binary-9_transformed_fast0507 is successfully added to MIP model
miplib_39binary-9_transformed_fast0507
N of variables: 63009
N of binary vars: 63009
N of constraints: 507
Initial obj of MIP: 514.0
call and execute heuristic search for the given instance
Instance: miplib_39binary-9_transformed_fast0507
Status of SCIP_baseline:  timelimit
Best obj of SCIP_baseline:  178.0
Solving time:  60.004802


[array([514., 213., 178.]), array([ 0.      ,  8.691314, 49.032778])]
instance:  10
create a new SCIP model
original problem has 1298 variables (1254 bin, 0 int, 0 impl, 44 cont) and 353 constraints
The initial incumbent of miplib_39binary-10_transformed_fiber is successfully added to MIP model
miplib_39binary-10_transformed_fiber
N of variables: 1298
N of binary vars: 1254
N of constraints: 353
Initial obj of MIP: 139950532.0
call and execute heuristic search for the given instance
Instance: miplib_39binary-10_transformed_fiber
Status of SCIP_baseline:  optimal
Best obj of SCIP_baseline:  40593518.0
Solving time:  1.417561


[array([1.39950532e+08, 5.00316940e+07, 4.68394060e+07, 4.66640220e+07,
       4.11151820e+07, 4.10489180e+07, 4.09488620e+07, 4.05935180e+07]), array([0.      , 0.044403, 0.151879, 0.374505, 0.407058, 0.766077,
       1.053926, 1.409122])]
instance:  11
create a new SCIP model
original problem has 322 variables (302 bin, 0 int, 0 impl, 20 cont) and 394 constraints
The initial incumbent of miplib_39binary-11_transformed_glass4 is successfully added to MIP model
miplib_39binary-11_transformed_glass4
N of variables: 322
N of binary vars: 302
N of constraints: 394
Initial obj of MIP: 3800031500.0
call and execute heuristic search for the given instance
Instance: miplib_39binary-11_transformed_glass4
Status of SCIP_baseline:  timelimit
Best obj of SCIP_baseline:  1700016607.6314743
Solving time:  60.000533


[array([3.80003150e+09, 3.63336651e+09, 3.03336037e+09, 2.90669397e+09,
       2.88335760e+09, 2.86251008e+09, 2.77002056e+09, 2.50001920e+09,
       2.36002055e+09, 2.00001760e+09, 1.90002010e+09, 1.90001920e+09,
       1.90001710e+09, 1.88001790e+09, 1.73334967e+09, 1.70001661e+09]), array([ 0.      ,  0.259583,  0.413035,  0.442931,  0.478632,  0.830679,
        0.884935,  1.076725,  1.242348,  1.943687,  5.582191,  5.620592,
       11.833047, 12.588668, 32.61878 , 34.359431])]
instance:  12
create a new SCIP model
original problem has 2993 variables (2993 bin, 0 int, 0 impl, 0 cont) and 102 constraints
The initial incumbent of miplib_39binary-12_transformed_harp2 is successfully added to MIP model
miplib_39binary-12_transformed_harp2
N of variables: 2993
N of binary vars: 2993
N of constraints: 102
Initial obj of MIP: -60953969.0
call and execute heuristic search for the given instance
Instance: miplib_39binary-12_transformed_harp2
Status of SCIP_baseline:  timelimit
Best obj of SCIP_baseline:  -73847025.0
Solving time:  60.000166


[array([-60953969.        , -62278799.99999998, -69447642.        ,
       -71677389.        , -72098950.        , -72272327.        ,
       -72501616.        , -72584495.        , -72976017.        ,
       -73020389.        , -73032002.        , -73261951.        ,
       -73398991.        , -73406281.        , -73496946.        ,
       -73622040.        , -73625988.        , -73735856.        ,
       -73751422.        , -73759150.        , -73796354.        ,
       -73808496.99999999, -73827135.        , -73835001.        ,
       -73842789.        , -73844023.99999999, -73844205.        ,
       -73846962.        , -73847025.        ]), array([ 0.      ,  0.216221,  0.512115,  0.586837,  0.589549,  0.590041,
        6.408352,  8.012524,  8.013153,  8.01365 ,  9.207628, 10.734767,
       11.855638, 13.856612, 15.744531, 17.48954 , 20.566619, 21.960034,
       23.34372 , 30.158741, 37.530306, 37.563619, 37.595482, 37.62513 ,
       37.64501 , 37.712073, 37.810218, 38.379278, 47.672316])]
instance:  13
create a new SCIP model
original problem has 1156 variables (1089 bin, 0 int, 0 impl, 67 cont) and 2178 constraints
The initial incumbent of miplib_39binary-13_transformed_liu is successfully added to MIP model
miplib_39binary-13_transformed_liu
N of variables: 1156
N of binary vars: 1089
N of constraints: 2178
Initial obj of MIP: 5600.0
call and execute heuristic search for the given instance
Instance: miplib_39binary-13_transformed_liu
Status of SCIP_baseline:  timelimit
Best obj of SCIP_baseline:  1968.0000000001503
Solving time:  60.00015


[array([5600.      , 5598.      , 5448.      , 4116.      , 2952.      ,
       2880.      , 2844.      , 2834.      , 2480.      , 2478.      ,
       2360.      , 2328.      , 2320.      , 2294.      , 2292.      ,
       2254.      , 2244.      , 2210.      , 2204.      , 2200.      ,
       2192.      , 2190.      , 2180.      , 2178.      , 2174.      ,
       2170.      , 2164.      , 2160.      , 2158.      , 2157.999999,
       2150.      , 2138.      , 2134.      , 2130.      , 2122.      ,
       2110.      , 2106.      , 2088.      , 2078.      , 2076.      ,
       2068.      , 2064.      , 2062.      , 2061.999999, 2052.      ,
       2044.      , 2038.      , 2036.      , 2034.      , 2028.      ,
       2027.999999, 2024.      , 2010.      , 2004.      , 2003.999999,
       1998.      , 1984.      , 1976.      , 1970.      , 1968.      ]), array([0.0000000e+00, 2.3212000e-02, 4.7424000e-02, 6.0654000e-02,
       3.1225270e+00, 3.1455200e+00, 3.1461520e+00, 3.1465810e+00,
       3.7471470e+00, 4.0412400e+00, 5.2297280e+00, 5.6718730e+00,
       6.5546540e+00, 6.9107090e+00, 7.4323520e+00, 8.8842660e+00,
       9.3418270e+00, 1.0015372e+01, 1.0707691e+01, 1.3248516e+01,
       1.3583284e+01, 1.4388784e+01, 1.6200289e+01, 1.7101242e+01,
       1.7330974e+01, 1.8641231e+01, 1.8879976e+01, 1.9723091e+01,
       1.9877754e+01, 2.2955371e+01, 2.4477890e+01, 2.4718469e+01,
       2.6533807e+01, 2.6870273e+01, 3.2640944e+01, 3.3331394e+01,
       3.5630083e+01, 3.5986854e+01, 3.8433202e+01, 4.0071883e+01,
       4.1554603e+01, 4.1785929e+01, 4.3507276e+01, 4.4276352e+01,
       4.4706160e+01, 4.5436637e+01, 4.6004295e+01, 4.6462430e+01,
       4.7096787e+01, 4.8734584e+01, 4.9237786e+01, 4.9573260e+01,
       4.9663362e+01, 4.9910306e+01, 5.2059425e+01, 5.2840975e+01,
       5.4643814e+01, 5.5090805e+01, 5.5597658e+01, 5.9970243e+01])]
instance:  14
create a new SCIP model
original problem has 260 variables (259 bin, 0 int, 0 impl, 1 cont) and 224 constraints
The initial incumbent of miplib_39binary-14_transformed_misc07 is successfully added to MIP model
miplib_39binary-14_transformed_misc07
N of variables: 260
N of binary vars: 259
N of constraints: 224
Initial obj of MIP: 3020.0
call and execute heuristic search for the given instance
Instance: miplib_39binary-14_transformed_misc07
Status of SCIP_baseline:  optimal
Best obj of SCIP_baseline:  2810.0
Solving time:  44.588814


[array([3020., 2895., 2810.]), array([0.      , 0.558266, 0.861526])]
instance:  15
create a new SCIP model
original problem has 5325 variables (5323 bin, 0 int, 0 impl, 2 cont) and 3411 constraints
The initial incumbent of miplib_39binary-15_transformed_mkc is successfully added to MIP model
miplib_39binary-15_transformed_mkc
N of variables: 5325
N of binary vars: 5323
N of constraints: 3411
Initial obj of MIP: -151375.0
call and execute heuristic search for the given instance
Instance: miplib_39binary-15_transformed_mkc
Status of SCIP_baseline:  timelimit
Best obj of SCIP_baseline:  -270455.0
Solving time:  60.000341


[array([-151375., -180359., -252065., -254105., -270455.]), array([ 0.      ,  0.404089,  7.643689, 40.177888, 54.966292])]
instance:  16
create a new SCIP model
original problem has 10958 variables (96 bin, 0 int, 0 impl, 10862 cont) and 4480 constraints
The initial incumbent of miplib_39binary-16_transformed_mod011 is successfully added to MIP model
miplib_39binary-16_transformed_mod011
N of variables: 10958
N of binary vars: 96
N of constraints: 4480
Initial obj of MIP: -19328601.238845017
call and execute heuristic search for the given instance
Instance: miplib_39binary-16_transformed_mod011
Status of SCIP_baseline:  timelimit
Best obj of SCIP_baseline:  -54180041.6763987
Solving time:  60.000649


[array([-19328601.23884502, -19328601.23884518, -21241416.23884518,
       -42783986.6658617 , -43212216.69005907, -53656254.10896146,
       -53844661.38240829, -54180041.67639855]), array([ 0.      ,  0.576087,  0.583495,  0.972665,  1.321675,  6.039089,
       54.28501 , 56.449076])]
instance:  17
create a new SCIP model
original problem has 5174 variables (2349 bin, 0 int, 0 impl, 2825 cont) and 26509 constraints
The initial incumbent of miplib_39binary-17_transformed_momentum1 is successfully added to MIP model
miplib_39binary-17_transformed_momentum1
N of variables: 5174
N of binary vars: 2349
N of constraints: 26509
Initial obj of MIP: 365999.3778172444
call and execute heuristic search for the given instance
Instance: miplib_39binary-17_transformed_momentum1
Status of SCIP_baseline:  timelimit
Best obj of SCIP_baseline:  365999.3778172444
Solving time:  60.002906


[array([365999.37781724]), array([0.])]
instance:  18
create a new SCIP model
original problem has 6621 variables (6620 bin, 0 int, 0 impl, 1 cont) and 721 constraints
The initial incumbent of miplib_39binary-19_transformed_nsrand-ipx is successfully added to MIP model
miplib_39binary-19_transformed_nsrand-ipx
N of variables: 6621
N of binary vars: 6620
N of constraints: 721
Initial obj of MIP: 180960.0
call and execute heuristic search for the given instance
Instance: miplib_39binary-19_transformed_nsrand-ipx
Status of SCIP_baseline:  timelimit
Best obj of SCIP_baseline:  55680.0
Solving time:  60.000282


[array([180960., 159520., 139040., 114560., 106080.,  85120.,  80160.,
        66080.,  55680.]), array([ 0.      ,  7.322722,  7.997407, 10.002008, 10.625786, 11.912263,
       13.802912, 16.137464, 35.005463])]
instance:  19
create a new SCIP model
original problem has 769 variables (768 bin, 0 int, 0 impl, 1 cont) and 64 constraints
The initial incumbent of miplib_39binary-20_transformed_opt1217 is successfully added to MIP model
miplib_39binary-20_transformed_opt1217
N of variables: 769
N of binary vars: 768
N of constraints: 64
Initial obj of MIP: -14.0
call and execute heuristic search for the given instance
Instance: miplib_39binary-20_transformed_opt1217
Status of SCIP_baseline:  timelimit
Best obj of SCIP_baseline:  -16.000000014109766
Solving time:  60.000636


[array([-14.        , -14.        , -16.        , -16.        ,
       -16.        , -16.00000001]), array([ 0.      ,  0.036463,  0.099157,  0.136504,  1.112353, 36.06139 ])]
instance:  20
create a new SCIP model
original problem has 2756 variables (2756 bin, 0 int, 0 impl, 0 cont) and 729 constraints
The initial incumbent of miplib_39binary-21_transformed_p2756 is successfully added to MIP model
miplib_39binary-21_transformed_p2756
N of variables: 2756
N of binary vars: 2756
N of constraints: 729
Initial obj of MIP: 14683.0
call and execute heuristic search for the given instance
Instance: miplib_39binary-21_transformed_p2756
Status of SCIP_baseline:  optimal
Best obj of SCIP_baseline:  3124.0
Solving time:  1.224747


[array([14683.,  7386.,  7062.,  6848.,  4733.,  3333.,  3315.,  3241.,
        3198.,  3186.,  3162.,  3152.,  3151.,  3131.,  3130.,  3124.]), array([0.      , 0.098617, 0.122099, 0.149232, 0.149822, 0.167455,
       0.167821, 0.357796, 0.372896, 0.495696, 0.497007, 1.151842,
       1.152448, 1.183771, 1.194707, 1.221768])]
instance:  21
create a new SCIP model
original problem has 1835 variables (1835 bin, 0 int, 0 impl, 0 cont) and 2387 constraints
The initial incumbent of miplib_39binary-22_transformed_protfold is successfully added to MIP model
miplib_39binary-22_transformed_protfold
N of variables: 1835
N of binary vars: 1835
N of constraints: 2387
Initial obj of MIP: -22.0
call and execute heuristic search for the given instance
Instance: miplib_39binary-22_transformed_protfold
Status of SCIP_baseline:  timelimit
Best obj of SCIP_baseline:  -22.0
Solving time:  60.000262


[array([-22.]), array([0.])]
instance:  22
create a new SCIP model
original problem has 840 variables (48 bin, 0 int, 0 impl, 792 cont) and 1192 constraints
The initial incumbent of miplib_39binary-23_transformed_qiu is successfully added to MIP model
miplib_39binary-23_transformed_qiu
N of variables: 840
N of binary vars: 48
N of constraints: 1192
Initial obj of MIP: 1816.116983380783
call and execute heuristic search for the given instance
Instance: miplib_39binary-23_transformed_qiu
Status of SCIP_baseline:  optimal
Best obj of SCIP_baseline:  -132.87313694699952
Solving time:  42.338341


[array([1816.11698338, 1805.17714146, 1805.17713262, 1691.14314305,
       1519.04018845, 1463.07514305, 1006.93914305,  778.87114553,
        593.60063333,  413.92308982,  266.03230947,  150.84308382,
        143.31206542,   81.33694305,    3.19196305,   -5.62047695,
         -8.83233695,  -10.94104671,  -27.65157695,  -36.46401695,
       -107.11371389, -110.84203695, -132.87313695]), array([ 0.      ,  0.036252,  0.05394 ,  0.668936,  0.744219,  0.882247,
        0.884509,  0.946328,  7.985105,  7.986214,  7.989166,  7.991373,
        9.255177,  9.25654 , 10.166098, 10.686546, 11.750271, 11.786857,
       11.795193, 13.127806, 13.33719 , 13.33947 , 14.424985])]
instance:  23
create a new SCIP model
original problem has 1372 variables (1372 bin, 0 int, 0 impl, 0 cont) and 4944 constraints
The initial incumbent of miplib_39binary-24_transformed_seymour is successfully added to MIP model
miplib_39binary-24_transformed_seymour
N of variables: 1372
N of binary vars: 1372
N of constraints: 4944
Initial obj of MIP: 770.0
call and execute heuristic search for the given instance
Instance: miplib_39binary-24_transformed_seymour
Status of SCIP_baseline:  timelimit
Best obj of SCIP_baseline:  429.0
Solving time:  60.000502


[array([770., 457., 433., 431., 429.]), array([0.0000000e+00, 5.4669000e-02, 1.0798235e+01, 1.9550598e+01,
       5.6989499e+01])]
instance:  24
create a new SCIP model
original problem has 14101 variables (14101 bin, 0 int, 0 impl, 0 cont) and 1739 constraints
The initial incumbent of miplib_39binary-25_transformed_sp97ar is successfully added to MIP model
miplib_39binary-25_transformed_sp97ar
N of variables: 14101
N of binary vars: 14101
N of constraints: 1739
Initial obj of MIP: 3204417165.0
call and execute heuristic search for the given instance
Instance: miplib_39binary-25_transformed_sp97ar
Status of SCIP_baseline:  timelimit
Best obj of SCIP_baseline:  2208552777.0
Solving time:  60.001157


[array([3.20441716e+09, 2.22147550e+09, 2.21479544e+09, 2.20855278e+09]), array([ 0.      , 25.385851, 25.488093, 25.495584])]
instance:  25
create a new SCIP model
original problem has 6805 variables (6724 bin, 0 int, 0 impl, 81 cont) and 564 constraints
The initial incumbent of miplib_39binary-26_transformed_swath is successfully added to MIP model
miplib_39binary-26_transformed_swath
N of variables: 6805
N of binary vars: 6724
N of constraints: 564
Initial obj of MIP: 608.736209
call and execute heuristic search for the given instance
Instance: miplib_39binary-26_transformed_swath
Status of SCIP_baseline:  timelimit
Best obj of SCIP_baseline:  546.834337
Solving time:  60.000343


[array([608.736209, 605.848916, 556.898081, 556.159525, 556.159525,
       546.834337]), array([ 0.      , 11.274122, 12.657014, 12.66344 , 33.492033, 50.872381])]
instance:  26
create a new SCIP model
original problem has 73885 variables (73885 bin, 0 int, 0 impl, 0 cont) and 1755 constraints
The initial incumbent of miplib_39binary-27_transformed_t1717 is successfully added to MIP model
miplib_39binary-27_transformed_t1717
N of variables: 73885
N of binary vars: 73885
N of constraints: 1755
Initial obj of MIP: 568646.0
call and execute heuristic search for the given instance
Instance: miplib_39binary-27_transformed_t1717
Status of SCIP_baseline:  timelimit
Best obj of SCIP_baseline:  568646.0
Solving time:  60.023017


[array([568646.]), array([0.])]
instance:  27
create a new SCIP model
original problem has 1080 variables (360 bin, 0 int, 0 impl, 720 cont) and 742 constraints
The initial incumbent of miplib_39binary-28_transformed_tr12-30 is successfully added to MIP model
miplib_39binary-28_transformed_tr12-30
N of variables: 1080
N of binary vars: 360
N of constraints: 742
Initial obj of MIP: 241956.0
call and execute heuristic search for the given instance
Instance: miplib_39binary-28_transformed_tr12-30
Status of SCIP_baseline:  timelimit
Best obj of SCIP_baseline:  133431.0
Solving time:  60.000158


[array([241956.       , 240956.       , 157982.       , 157580.2298215,
       154424.       , 142121.       , 141921.       , 141532.       ,
       141282.       , 139741.       , 139535.       , 139229.       ,
       138108.       , 138074.       , 136967.       , 136694.       ,
       136607.       , 136603.       , 133868.       , 133857.       ,
       133749.       , 133431.       ]), array([0.0000000e+00, 1.2945000e-02, 5.9927900e-01, 6.9198600e-01,
       7.1279600e-01, 1.6479920e+00, 1.6510020e+00, 5.8901280e+00,
       5.8915050e+00, 9.6662320e+00, 1.7011476e+01, 1.7035666e+01,
       2.9042016e+01, 3.4324650e+01, 3.4594119e+01, 3.5483674e+01,
       3.5938468e+01, 3.6052519e+01, 3.7430485e+01, 3.7730811e+01,
       3.9507417e+01, 5.1906785e+01])]
instance:  28
create a new SCIP model
original problem has 12481 variables (192 bin, 0 int, 0 impl, 12289 cont) and 22400 constraints
The initial incumbent of miplib_39binary-29_transformed_van is successfully added to MIP model
miplib_39binary-29_transformed_van
N of variables: 12481
N of binary vars: 192
N of constraints: 22400
Initial obj of MIP: 35.98636241703319
call and execute heuristic search for the given instance
Instance: miplib_39binary-29_transformed_van
Status of SCIP_baseline:  timelimit
Best obj of SCIP_baseline:  5.618074636238228
Solving time:  60.014349


[array([35.98636242, 34.22197609, 33.22112351, 30.82502497, 29.58941129,
        5.61807464]), array([ 0.      ,  8.173553,  8.446944,  8.699601,  9.023203, 49.970553])]
miplib_39binary-large
rootsol
./result/generated_instances/miplib_39binary/-large/rootsol/scip/heuristic_mode/lb-from-rootsol-t_total60s-large_scip_baseline/seed0/
seed: 0
cpu
